(set-logic QF_BV)
(declare-fun _substvar_1333_ () Bool)
(declare-fun _substvar_803_ () (_ BitVec 11))
(declare-fun _substvar_634_ () (_ BitVec 11))
(declare-fun _substvar_1057_ () (_ BitVec 11))
(declare-fun _substvar_1346_ () Bool)
(declare-fun _substvar_1059_ () (_ BitVec 11))
(declare-fun _substvar_622_ () (_ BitVec 11))
(declare-fun _substvar_1337_ () Bool)
(declare-fun _substvar_620_ () (_ BitVec 11))
(declare-fun _substvar_1342_ () Bool)
(declare-fun _substvar_1349_ () Bool)
(define-fun shlok ((x (_ BitVec 11)) (y (_ BitVec 11))) Bool (= (_ bv0 11) (_ bv0 11)))
(assert (or false false false false false false false false false false false false false false false false false false false false false false false false false false false false false false false false false false false false false false false false false false false false false false false false false false false false false false false false false false (and true true _substvar_1333_ (= _substvar_634_ (bvsub _substvar_620_ _substvar_622_))) (and true true true (= _substvar_634_ (bvsub _substvar_622_ _substvar_620_))) false false false false false false false false false false false false false false false false false false false false false false false false false false false false false false false false false false false false false false))
(assert (or false false false false false false false false false (and true true _substvar_1342_ (= _substvar_803_ (bvsub (_ bv255 11) _substvar_620_))) false false false false false false false false false false false false false false false false false false false false false false (and true true true (= _substvar_803_ (_ bv0 11))) (and true true _substvar_1337_ (= _substvar_803_ (bvsub _substvar_620_ (_ bv383 11)))) false false false false false false false false false false false false false false false false false false false false false false false false false false false false false false false false false false false false false false false false false false false false false false false false false false false false false false false false false false false false false false false false false false false false false false false false false false false false false false false false false false false false false false false false false false))
(assert (or false false false false false false false false false false false false false false false false false false false false false false false false false false false false false false false false false false false false (and true true true (= _substvar_1057_ (bvsub (_ bv0 11) (_ bv383 11)))) false false false false false false false false false false false false false false false false false false false (and true true (= _substvar_1057_ (bvsub _substvar_620_ (_ bv1 11)))) false false false false false false false false false false false false false false false false false false false false false false false false false false false false false false false false false false false false false false false false false false false false false false false false false false false false false false false false false false false false false false false false false false false false false false false false false false (and true _substvar_1349_ (= _substvar_1057_ (bvsub (_ bv1 11) _substvar_622_))) false false false false false false false (and true true _substvar_1346_ (= _substvar_1057_ (_ bv0 11))) false false false false false false false false false false false false false))
(assert (or false false false false false false false false false false false false false false false false false false false false false false false false false false false false false false false false false false false false false false false false false false false false false false false false false false false false false false false false false false false false false false false false false false false false false false false false false false false false false false false false false false false false false false false false false false false false false false false false false false false false false false false false false false false false false false false false false false false false false false false false false false false false false false false false false false false false false false false false false false false false false false false false false false false false false false false false false false false false false false false false false false false false false false false false false false false (and true true true (= _substvar_1059_ (bvsub _substvar_1057_ _substvar_634_))) false false false false false false false false false (and true true (= _substvar_1059_ (bvsub _substvar_1057_ (_ bv0 11)))) false false false))
(assert (or false false false (= (_ bv815 11) _substvar_622_) (= (_ bv815 11) _substvar_634_) (= (_ bv815 11) _substvar_803_) (= (_ bv815 11) _substvar_1057_) (= (_ bv815 11) _substvar_1059_)))
(assert (or false false false (= (_ bv871 11) _substvar_622_) (= (_ bv871 11) _substvar_634_) (= (_ bv871 11) _substvar_803_) (= (_ bv871 11) _substvar_1057_) (= (_ bv871 11) _substvar_1059_)))
(assert (or false false false (= (_ bv505 11) _substvar_622_) (= (_ bv505 11) _substvar_634_) (= (_ bv505 11) _substvar_803_) (= (_ bv505 11) _substvar_1057_) (= (_ bv505 11) _substvar_1059_)))
(check-sat)
(exit)
